(define-fun lat!and!bool!2 ((x Bool )
(y Bool )
)
Bool (and x y )
)
(define-fun lat!or!bool!2 ((x Bool )
(y Bool )
)
Bool (or x y )
)
(define-fun lat!agr!xor!2 ((x Bool )
(y Bool )
)
Bool (xor x y )
)
(define-fun lat!agr!not!1 ((x Bool )
)
Bool (not x )
)
(define-fun lat!distance ((x Bool )
(y Bool )
)
Real (ite (= x y )
0.0 1.0 )
)
(declare-const sym!td!0!a Bool )
(declare-const sym!td!0!b Bool )
(declare-const sym!td!0!c Bool )
(declare-const sym!td!0!d Bool )
(declare-const deviation! Real )
(assert (= deviation! (+ (lat!distance true (lat!and!bool!2 true (lat!and!bool!2 true (lat!and!bool!2 true (lat!and!bool!2 true (lat!or!bool!2 (lat!agr!xor!2 (lat!agr!not!1 (lat!and!bool!2 sym!td!0!a (lat!agr!not!1 (lat!and!bool!2 (lat!agr!not!1 (lat!and!bool!2 sym!td!0!b sym!td!0!c )
)
(lat!agr!not!1 (lat!and!bool!2 sym!td!0!c sym!td!0!d )
)
)
)
)
)
(lat!agr!not!1 (lat!and!bool!2 sym!td!0!a sym!td!0!b )
)
)
(lat!or!bool!2 (lat!agr!xor!2 (lat!agr!not!1 (lat!and!bool!2 sym!td!0!c sym!td!0!d )
)
(lat!agr!not!1 (lat!or!bool!2 sym!td!0!c sym!td!0!d )
)
)
false )
)
)
)
)
)
)
)
)
)
(minimize deviation! )
(check-sat )
(get-model )
